sat
(:elim-unconstrained      2
 :max-memory              43.53
 :memory                  20.41
 :num-allocs              213933477
 :rlimit-count            2216526
 :sat-backjumps           6130
 :sat-backtracks          3
 :sat-conflicts           6133
 :sat-decisions           18265
 :sat-del-clause          58410
 :sat-elim-bool-vars-res  10971
 :sat-elim-clauses        44
 :sat-elim-literals       1099
 :sat-minimized-lits      60066
 :sat-mk-clause-2ary      33980
 :sat-mk-clause-3ary      15642
 :sat-mk-clause-nary      99168
 :sat-mk-var              23116
 :sat-probing-assigned    40
 :sat-propagations-2ary   679512
 :sat-propagations-nary   1064039
 :sat-restarts            887
 :sat-scc-elim-binary     158
 :sat-scc-elim-vars       31
 :sat-subs-resolution     937
 :sat-subs-resolution-dyn 2954
 :sat-subsumed            12583
 :sat-units               57
 :time                    0.79
 :total-time              0.81)
